NAME : rc_204.3.4550315.tour
COMMENT : Length = 4550315
COMMENT : Found by LKH [Keld Helsgaun] Tue Nov  7 19:55:48 2017
TYPE : TOUR
DIMENSION : 24
TOUR_SECTION
1
23
22
17
16
10
7
5
3
2
4
6
8
9
11
15
13
20
14
21
18
12
19
24
-1
EOF
